Route #1: 606 394 386 788 361 79 95 265 638 985 655
Route #2: 673 254 703 449 144 625 729 51 796
Route #3: 854 927 68 516 819 281 800 634 632
Route #4: 14 650 965 572 318 917 176 444 173 82 106
Route #5: 202 286 876 471 112 658 114 613 267
Route #6: 487 802 695 201 706 320 61 610 247
Route #7: 970 911 141 743 559 541 110 866
Route #8: 89 319 70 116 611 787 621 537 297
Route #9: 74 142 540 713 283 712 278 407
Route #10: 527 697 704 253 459 790 751 877
Route #11: 299 873 630 607 182 834 77 569 710 445 626
Route #12: 775 893 239 501 384 455 461 753 478
Route #13: 489 411 718 762 517 651 664 915 264 532
Route #14: 726 213 932 122 770 117 26 721 898 844 687
Distance: 33000
